instances/in_30_15_6_4.dzn
n = 30;
k = 15;
h = 6;
tiles = array2d(1..n, 1..2,
[ 7,12
, 4,9
, 9,4
, 13,5
, 4,4
, 6,12
, 10,12
, 7,1
, 10,14
, 11,10
, 10,3
, 15,2
, 1,5
, 10,14
, 3,2
, 10,7
, 7,3
, 14,14
, 14,10
, 14,12
, 4,7
, 3,2
, 9,10
, 3,7
, 13,7
, 2,8
, 5,4
, 9,11
, 2,1
, 5,4
]);