instances/in_30_15_6_4.lp
#const n = 30.
#const k = 15.
#const h = 6.
tile(1,7,12).
tile(2,4,9).
tile(3,9,4).
tile(4,13,5).
tile(5,4,4).
tile(6,6,12).
tile(7,10,12).
tile(8,7,1).
tile(9,10,14).
tile(10,11,10).
tile(11,10,3).
tile(12,15,2).
tile(13,1,5).
tile(14,10,14).
tile(15,3,2).
tile(16,10,7).
tile(17,7,3).
tile(18,14,14).
tile(19,14,10).
tile(20,14,12).
tile(21,4,7).
tile(22,3,2).
tile(23,9,10).
tile(24,3,7).
tile(25,13,7).
tile(26,2,8).
tile(27,5,4).
tile(28,9,11).
tile(29,2,1).
tile(30,5,4).
